1,0,0,0,63
1,0,0,5,57
1,0,0,5,48
1,0,0,5,39
1,0,0,5,31
1,0,0,5,22
1,0,0,5,14
1,0,0,5,6
1,0,0,1,4
1,0,0,1,1
1,0,0,1,0
1,0,0,0,0
1,0,0,0,1
1,0,0,12,12
1,0,0,22,7
1,0,0,33,6
1,0,0,44,8
1,0,0,56,8
1,0,0,68,8
1,0,0,80,8
1,0,0,92,8
1,0,0,105,8
1,0,0,116,8
1,0,0,126,7
1,0,0,127,0
1,0,0,121,13
1,0,0,113,19
1,0,0,124,30
1,0,0,112,40
1,0,0,119,47
1,0,0,127,63
1,0,0,108,55
1,0,0,99,51
1,0,0,103,49
1,0,0,92,47
1,0,0,88,51
1,0,0,94,55
1,0,0,90,51
1,0,0,83,48
1,0,0,81,55
1,0,0,76,52
1,0,0,70,50
1,0,0,65,55
1,0,0,60,50
1,0,0,44,49
1,0,0,42,54
1,0,0,52,52
1,0,0,34,52
1,0,0,30,48
1,0,0,26,52
1,0,0,20,48
1,0,0,15,53
1,0,0,10,48
